2304.13
0 48 44 46 74 3 19 0
0 58 49 73 64 5 37 0
0 45 68 66 10 0
0 43 51 32 35 65 1 0
0 31 72 59 27 26 29 0
0 16 20 28 25 41 0
0 17 8 53 70 22 60 71 0
0 47 75 62 30 39 0
0 24 40 12 50 0
0 33 6 7 11 0
0 2 21 36 57 13 69 0
0 38 54 15 67 34 0
0 63 61 14 42 23 56 0
0 9 55 18 4 52 0
